************************************************************************
file with basedata            : mm44_.bas
initial value random generator: 1233221904
************************************************************************
projects                      :  1
jobs (incl. supersource/sink ):  12
horizon                       :  95
RESOURCES
  - renewable                 :  2   R
  - nonrenewable              :  2   N
  - doubly constrained        :  0   D
************************************************************************
PROJECT INFORMATION:
pronr.  #jobs rel.date duedate tardcost  MPM-Time
    1     10      0       19        1       19
************************************************************************
PRECEDENCE RELATIONS:
jobnr.    #modes  #successors   successors
   0        1          3           1   2   3
   1        3          1           9
   2        3          3           4   5   6
   3        3          2           4   5
   4        3          1           9
   5        3          1           8
   6        3          3           7   8  10
   7        3          1           9
   8        3          1          11
   9        3          1          11
  10        3          1          11
  11        1          0        
************************************************************************
REQUESTS/DURATIONS:
jobnr. mode duration  R 1  R 2  R 3  R 4  E(W 1)  E(W 2)  E(W 3)
------------------------------------------------------------------------
  0      1     0       0    0    0    0     0       0       0
  1      1     7       5    4    8    0    63      56       0
  2      1     3       5    9    0    8    42       0      24
  3      1     4       6    6    0    7    48       0      28
  4      1     4       8    7    4    0    60      16       0
  5      1     4       8    6    0    9    56       0      36
  6      1     8      10    6    5    0    128      40       0
  7      1     6       9    7    7    0    96      42       0
  8      1     3       5    8    9    0    39      27       0
  9      1     2      10   10    0    3    40       0       6
 10      1     3       8    6    7    0    42      21       0
 11      1     0       0    0    0    0     0       0       0
************************************************************************
RESOURCEAVAILABILITIES:
  R 1  R 2  R 3
   34   50   52
************************************************************************
RESOURCE LIMITS:
jobnr.  l(R 1)  u(R 1)  l(R 2)  u(R 2)  l(R 3)  u(R 3)
------------------------------------------------------------------------
  0        0       0       0       0       0       0
  1        5       9       4       8       0       0
  2        8      14       0       0       4       8
  3        6      12       0       0       4       7
  4        8      15       2       4       0       0
  5        7      14       0       0       5       9
  6        8      16       3       5       0       0
  7        9      16       4       7       0       0
  8        7      13       5       9       0       0
  9       10      20       0       0       2       3
 10        7      14       4       7       0       0
 11        0       0       0       0       0       0
************************************************************************
SCENARIOS:
------------------------------------------------------------------------
RESOURCE k = 1
s = 1: (0, 94, 53, 40, 65, 36, 119, 87, 39, 30, 42, 0)
s = 2: (0, 79, 30, 84, 48, 68, 80, 58, 53, 46, 36, 0)
s = 3: (0, 56, 59, 38, 38, 89, 76, 72, 47, 37, 41, 0)
s = 4: (0, 47, 23, 60, 62, 64, 132, 110, 38, 70, 45, 0)
s = 5: (0, 72, 46, 65, 61, 63, 134, 53, 46, 49, 53, 0)
s = 6: (0, 78, 29, 42, 60, 58, 106, 81, 31, 33, 35, 0)
s = 7: (0, 48, 40, 49, 54, 67, 76, 108, 42, 24, 40, 0)
s = 8: (0, 60, 30, 51, 40, 43, 99, 86, 49, 36, 41, 0)
s = 9: (0, 57, 60, 34, 44, 62, 86, 80, 32, 35, 49, 0)
s = 10: (0, 64, 45, 33, 67, 52, 124, 133, 33, 40, 44, 0)
s = 11: (0, 50, 39, 61, 60, 63, 106, 62, 46, 34, 38, 0)
s = 12: (0, 59, 58, 43, 72, 35, 124, 97, 34, 39, 55, 0)
s = 13: (0, 48, 61, 35, 53, 47, 149, 64, 31, 33, 36, 0)
s = 14: (0, 74, 38, 39, 56, 95, 209, 93, 41, 28, 38, 0)
s = 15: (0, 40, 54, 29, 69, 50, 76, 92, 64, 43, 51, 0)
s = 16: (0, 56, 44, 28, 57, 49, 114, 100, 37, 35, 54, 0)
s = 17: (0, 60, 39, 50, 46, 36, 127, 170, 48, 27, 33, 0)
s = 18: (0, 66, 42, 54, 57, 73, 79, 59, 45, 28, 37, 0)
s = 19: (0, 42, 44, 44, 58, 44, 121, 144, 49, 48, 56, 0)
s = 20: (0, 68, 30, 40, 81, 34, 106, 127, 68, 35, 34, 0)
s = 21: (0, 48, 52, 75, 44, 75, 101, 70, 34, 30, 41, 0)
s = 22: (0, 39, 53, 58, 59, 83, 98, 67, 34, 57, 26, 0)
s = 23: (0, 88, 24, 50, 53, 68, 229, 108, 56, 45, 48, 0)
s = 24: (0, 43, 47, 49, 90, 65, 163, 86, 56, 31, 46, 0)
s = 25: (0, 56, 66, 30, 56, 72, 176, 88, 28, 52, 52, 0)
s = 26: (0, 65, 33, 30, 66, 92, 149, 92, 31, 52, 26, 0)
s = 27: (0, 88, 54, 45, 44, 61, 110, 64, 28, 51, 68, 0)
s = 28: (0, 71, 41, 33, 45, 66, 115, 84, 32, 40, 51, 0)
s = 29: (0, 87, 31, 60, 74, 65, 102, 115, 29, 61, 45, 0)
s = 30: (0, 55, 56, 39, 36, 47, 204, 105, 31, 39, 59, 0)
s = 31: (0, 88, 38, 46, 53, 64, 114, 96, 51, 52, 31, 0)
s = 32: (0, 51, 39, 39, 64, 39, 139, 70, 28, 26, 41, 0)
s = 33: (0, 66, 49, 49, 75, 34, 122, 150, 40, 49, 29, 0)
s = 34: (0, 36, 45, 69, 44, 41, 169, 105, 38, 30, 32, 0)
s = 35: (0, 63, 56, 45, 72, 38, 77, 106, 48, 32, 33, 0)
s = 36: (0, 89, 55, 31, 47, 33, 103, 75, 46, 44, 28, 0)
s = 37: (0, 48, 38, 49, 54, 41, 138, 92, 33, 55, 45, 0)
s = 38: (0, 37, 37, 30, 55, 32, 150, 81, 50, 37, 40, 0)
s = 39: (0, 108, 42, 56, 57, 49, 93, 161, 40, 36, 29, 0)
s = 40: (0, 47, 45, 50, 83, 74, 183, 109, 53, 37, 49, 0)
s = 41: (0, 56, 30, 34, 57, 66, 121, 115, 44, 48, 47, 0)
s = 42: (0, 75, 32, 50, 47, 39, 180, 125, 43, 34, 41, 0)
s = 43: (0, 76, 33, 53, 74, 63, 137, 129, 36, 46, 44, 0)
s = 44: (0, 51, 46, 30, 72, 70, 186, 88, 38, 48, 35, 0)
s = 45: (0, 67, 27, 50, 84, 53, 101, 81, 24, 32, 51, 0)
s = 46: (0, 55, 44, 77, 41, 45, 159, 92, 24, 39, 62, 0)
s = 47: (0, 97, 57, 31, 35, 57, 149, 97, 34, 34, 32, 0)
s = 48: (0, 41, 48, 57, 60, 35, 143, 65, 23, 42, 37, 0)
s = 49: (0, 70, 35, 55, 51, 49, 165, 99, 29, 30, 40, 0)
s = 50: (0, 113, 44, 35, 36, 73, 110, 88, 33, 25, 68, 0)
s = 51: (0, 82, 39, 45, 62, 100, 141, 83, 57, 23, 39, 0)
s = 52: (0, 53, 33, 37, 44, 44, 153, 96, 35, 33, 50, 0)
s = 53: (0, 51, 41, 73, 60, 95, 76, 106, 56, 55, 38, 0)
s = 54: (0, 69, 39, 43, 43, 79, 105, 71, 28, 56, 26, 0)
s = 55: (0, 84, 38, 39, 56, 90, 127, 82, 27, 69, 65, 0)
s = 56: (0, 106, 57, 60, 52, 62, 72, 74, 29, 38, 36, 0)
s = 57: (0, 76, 36, 82, 71, 66, 128, 103, 35, 29, 39, 0)
s = 58: (0, 93, 24, 61, 48, 43, 114, 82, 52, 34, 55, 0)
s = 59: (0, 47, 63, 49, 48, 43, 176, 99, 34, 39, 31, 0)
s = 60: (0, 107, 68, 51, 61, 57, 95, 65, 32, 46, 49, 0)
s = 61: (0, 51, 30, 56, 64, 31, 110, 144, 28, 45, 32, 0)
s = 62: (0, 68, 37, 42, 63, 42, 221, 110, 66, 27, 37, 0)
s = 63: (0, 50, 32, 60, 52, 48, 112, 80, 63, 42, 53, 0)
s = 64: (0, 52, 36, 46, 48, 54, 100, 89, 29, 28, 53, 0)
s = 65: (0, 42, 46, 33, 57, 43, 100, 71, 25, 41, 27, 0)
s = 66: (0, 49, 33, 60, 53, 66, 157, 64, 22, 30, 47, 0)
s = 67: (0, 68, 30, 62, 56, 54, 114, 98, 45, 59, 32, 0)
s = 68: (0, 59, 39, 32, 54, 35, 104, 62, 52, 46, 28, 0)
s = 69: (0, 76, 23, 35, 57, 94, 160, 114, 31, 23, 65, 0)
s = 70: (0, 43, 26, 33, 59, 55, 182, 94, 44, 33, 44, 0)
s = 71: (0, 62, 54, 36, 74, 50, 153, 63, 28, 27, 45, 0)
s = 72: (0, 52, 23, 76, 56, 49, 117, 70, 31, 47, 48, 0)
s = 73: (0, 53, 30, 47, 83, 53, 173, 136, 58, 50, 77, 0)
s = 74: (0, 49, 36, 34, 51, 88, 140, 124, 35, 51, 41, 0)
s = 75: (0, 54, 32, 81, 47, 61, 76, 89, 40, 53, 24, 0)
s = 76: (0, 73, 33, 89, 40, 40, 142, 78, 59, 47, 52, 0)
s = 77: (0, 58, 39, 44, 42, 80, 144, 114, 37, 36, 26, 0)
s = 78: (0, 61, 40, 46, 96, 43, 208, 79, 23, 59, 52, 0)
s = 79: (0, 54, 41, 58, 83, 60, 76, 154, 24, 43, 38, 0)
s = 80: (0, 65, 41, 70, 68, 50, 94, 139, 26, 62, 29, 0)
s = 81: (0, 47, 57, 64, 60, 65, 137, 105, 27, 65, 49, 0)
s = 82: (0, 59, 45, 66, 49, 53, 124, 81, 40, 49, 36, 0)
s = 83: (0, 63, 33, 43, 36, 32, 162, 143, 35, 58, 34, 0)
s = 84: (0, 51, 42, 37, 85, 49, 152, 121, 35, 28, 37, 0)
s = 85: (0, 109, 52, 40, 52, 42, 103, 107, 54, 50, 53, 0)
s = 86: (0, 57, 37, 48, 46, 54, 85, 81, 54, 35, 48, 0)
s = 87: (0, 47, 31, 41, 52, 48, 82, 62, 38, 56, 48, 0)
s = 88: (0, 53, 41, 52, 33, 36, 68, 75, 36, 48, 28, 0)
s = 89: (0, 64, 30, 49, 57, 81, 124, 79, 22, 28, 80, 0)
s = 90: (0, 68, 27, 56, 40, 49, 119, 91, 51, 74, 31, 0)
s = 91: (0, 48, 33, 36, 40, 54, 112, 107, 43, 30, 30, 0)
s = 92: (0, 60, 30, 64, 58, 77, 73, 117, 36, 40, 56, 0)
s = 93: (0, 49, 48, 45, 52, 67, 127, 140, 33, 31, 49, 0)
s = 94: (0, 83, 42, 39, 74, 45, 134, 70, 22, 22, 50, 0)
s = 95: (0, 47, 48, 64, 85, 46, 167, 95, 56, 24, 60, 0)
s = 96: (0, 48, 60, 50, 91, 72, 139, 107, 46, 27, 24, 0)
s = 97: (0, 56, 41, 34, 77, 49, 94, 84, 48, 46, 39, 0)
s = 98: (0, 101, 34, 56, 53, 63, 141, 60, 54, 54, 40, 0)
s = 99: (0, 45, 77, 56, 39, 42, 126, 58, 29, 33, 57, 0)
s = 100: (0, 43, 49, 43, 38, 73, 75, 70, 49, 40, 42, 0)
s = 101: (0, 94, 74, 51, 91, 54, 95, 94, 37, 31, 38, 0)
s = 102: (0, 80, 41, 44, 109, 82, 93, 86, 29, 35, 50, 0)
s = 103: (0, 42, 44, 48, 82, 49, 120, 171, 47, 49, 31, 0)
s = 104: (0, 56, 29, 34, 80, 58, 137, 156, 51, 32, 46, 0)
s = 105: (0, 55, 41, 48, 50, 51, 218, 80, 50, 24, 28, 0)
s = 106: (0, 54, 38, 53, 77, 40, 199, 93, 54, 42, 38, 0)
s = 107: (0, 97, 48, 36, 84, 37, 184, 103, 35, 47, 49, 0)
s = 108: (0, 85, 58, 61, 61, 54, 187, 130, 49, 45, 35, 0)
s = 109: (0, 54, 31, 39, 64, 77, 175, 129, 52, 35, 43, 0)
s = 110: (0, 56, 26, 62, 48, 68, 109, 68, 49, 36, 41, 0)
s = 111: (0, 40, 71, 48, 74, 73, 80, 107, 44, 31, 42, 0)
s = 112: (0, 68, 74, 58, 40, 53, 125, 159, 47, 39, 52, 0)
s = 113: (0, 74, 66, 44, 101, 60, 138, 66, 24, 30, 60, 0)
s = 114: (0, 40, 58, 67, 62, 39, 125, 95, 48, 56, 68, 0)
s = 115: (0, 61, 31, 47, 42, 53, 208, 122, 42, 22, 63, 0)
s = 116: (0, 51, 41, 44, 73, 84, 141, 128, 33, 35, 53, 0)
s = 117: (0, 70, 45, 71, 61, 81, 109, 100, 50, 56, 35, 0)
s = 118: (0, 71, 41, 46, 84, 54, 113, 80, 31, 52, 67, 0)
s = 119: (0, 45, 48, 30, 70, 43, 138, 150, 41, 33, 45, 0)
s = 120: (0, 67, 49, 86, 77, 74, 183, 90, 30, 68, 46, 0)
s = 121: (0, 76, 67, 37, 56, 74, 125, 67, 39, 47, 42, 0)
s = 122: (0, 76, 39, 59, 51, 61, 121, 74, 25, 35, 56, 0)
s = 123: (0, 68, 32, 61, 35, 49, 115, 90, 41, 25, 62, 0)
s = 124: (0, 36, 42, 35, 55, 49, 155, 90, 40, 40, 37, 0)
s = 125: (0, 51, 54, 44, 42, 51, 97, 62, 48, 39, 49, 0)
s = 126: (0, 44, 44, 42, 71, 51, 102, 90, 23, 27, 26, 0)
s = 127: (0, 35, 33, 40, 76, 47, 82, 91, 25, 63, 47, 0)
s = 128: (0, 52, 59, 44, 74, 39, 113, 67, 36, 36, 51, 0)
s = 129: (0, 75, 47, 40, 47, 66, 104, 119, 24, 33, 34, 0)
s = 130: (0, 51, 44, 38, 66, 67, 93, 80, 60, 26, 43, 0)
s = 131: (0, 48, 55, 43, 71, 43, 139, 88, 30, 49, 45, 0)
s = 132: (0, 78, 37, 61, 82, 58, 86, 117, 39, 42, 55, 0)
s = 133: (0, 48, 50, 57, 81, 38, 108, 86, 37, 40, 72, 0)
s = 134: (0, 110, 29, 85, 73, 78, 106, 88, 36, 38, 41, 0)
s = 135: (0, 41, 50, 58, 36, 30, 76, 67, 34, 49, 42, 0)
s = 136: (0, 76, 36, 62, 41, 63, 93, 84, 32, 22, 37, 0)
s = 137: (0, 87, 67, 68, 57, 56, 103, 82, 23, 35, 46, 0)
s = 138: (0, 50, 44, 28, 67, 55, 98, 59, 38, 46, 55, 0)
s = 139: (0, 73, 70, 34, 59, 52, 177, 65, 34, 42, 48, 0)
s = 140: (0, 46, 69, 57, 78, 40, 173, 121, 25, 29, 42, 0)
s = 141: (0, 80, 30, 48, 60, 85, 142, 89, 44, 23, 31, 0)
s = 142: (0, 41, 35, 57, 59, 83, 80, 97, 55, 42, 42, 0)
s = 143: (0, 73, 42, 35, 50, 42, 205, 97, 49, 31, 36, 0)
s = 144: (0, 37, 48, 51, 39, 49, 162, 111, 23, 49, 25, 0)
s = 145: (0, 55, 52, 28, 52, 44, 128, 99, 40, 29, 22, 0)
s = 146: (0, 69, 48, 49, 72, 36, 130, 95, 51, 60, 52, 0)
s = 147: (0, 93, 47, 42, 40, 58, 191, 97, 29, 23, 38, 0)
s = 148: (0, 51, 65, 36, 46, 51, 186, 125, 47, 28, 41, 0)
s = 149: (0, 79, 32, 48, 51, 68, 114, 75, 42, 30, 36, 0)
s = 150: (0, 63, 24, 53, 62, 31, 113, 86, 37, 51, 39, 0)
s = 151: (0, 91, 50, 34, 42, 84, 90, 64, 51, 39, 36, 0)
s = 152: (0, 44, 50, 45, 41, 56, 153, 91, 48, 42, 60, 0)
s = 153: (0, 79, 35, 70, 54, 85, 140, 112, 27, 42, 32, 0)
s = 154: (0, 61, 33, 45, 42, 40, 179, 59, 40, 23, 48, 0)
s = 155: (0, 78, 53, 49, 72, 48, 141, 68, 26, 43, 34, 0)
s = 156: (0, 58, 69, 50, 65, 67, 138, 84, 52, 34, 61, 0)
s = 157: (0, 38, 57, 65, 60, 70, 129, 95, 28, 46, 26, 0)
s = 158: (0, 88, 43, 48, 80, 52, 107, 91, 50, 25, 56, 0)
s = 159: (0, 48, 51, 54, 75, 69, 103, 63, 29, 27, 55, 0)
s = 160: (0, 41, 30, 65, 38, 62, 149, 68, 45, 28, 68, 0)
s = 161: (0, 58, 34, 59, 81, 60, 96, 71, 35, 43, 44, 0)
s = 162: (0, 91, 43, 74, 66, 42, 162, 112, 35, 32, 40, 0)
s = 163: (0, 57, 32, 35, 70, 45, 91, 106, 54, 36, 35, 0)
s = 164: (0, 96, 42, 26, 48, 34, 174, 94, 37, 28, 31, 0)
s = 165: (0, 37, 50, 39, 44, 34, 117, 143, 30, 34, 37, 0)
s = 166: (0, 84, 35, 35, 51, 63, 87, 141, 41, 26, 28, 0)
s = 167: (0, 44, 65, 33, 73, 48, 117, 127, 67, 24, 55, 0)
s = 168: (0, 68, 30, 51, 52, 51, 193, 94, 32, 24, 30, 0)
s = 169: (0, 67, 46, 56, 63, 37, 69, 120, 39, 40, 40, 0)
s = 170: (0, 42, 28, 36, 35, 83, 173, 79, 35, 43, 37, 0)
s = 171: (0, 43, 40, 60, 47, 56, 173, 109, 37, 38, 39, 0)
s = 172: (0, 48, 28, 28, 52, 82, 104, 76, 42, 42, 34, 0)
s = 173: (0, 62, 36, 44, 49, 69, 122, 139, 43, 44, 40, 0)
s = 174: (0, 49, 61, 50, 49, 62, 117, 99, 62, 49, 41, 0)
s = 175: (0, 64, 54, 35, 70, 59, 136, 76, 36, 39, 30, 0)
s = 176: (0, 68, 30, 44, 63, 94, 121, 65, 40, 44, 34, 0)
s = 177: (0, 51, 66, 61, 62, 58, 114, 58, 22, 23, 33, 0)
s = 178: (0, 49, 32, 72, 75, 38, 173, 61, 41, 53, 40, 0)
s = 179: (0, 47, 52, 35, 82, 41, 128, 111, 26, 26, 43, 0)
s = 180: (0, 81, 51, 56, 78, 41, 103, 78, 49, 37, 52, 0)
s = 181: (0, 71, 30, 45, 67, 40, 118, 116, 31, 59, 32, 0)
s = 182: (0, 90, 45, 59, 41, 50, 135, 85, 32, 45, 44, 0)
s = 183: (0, 67, 72, 72, 95, 56, 111, 135, 29, 63, 39, 0)
s = 184: (0, 74, 47, 40, 70, 78, 107, 111, 39, 42, 57, 0)
s = 185: (0, 49, 55, 53, 86, 78, 122, 52, 42, 24, 38, 0)
s = 186: (0, 46, 39, 38, 65, 75, 114, 99, 38, 44, 51, 0)
s = 187: (0, 50, 46, 60, 37, 49, 137, 114, 40, 56, 40, 0)
s = 188: (0, 73, 26, 72, 79, 77, 71, 114, 26, 27, 67, 0)
s = 189: (0, 74, 37, 36, 53, 57, 134, 101, 35, 54, 39, 0)
s = 190: (0, 96, 48, 43, 52, 37, 86, 113, 47, 46, 60, 0)
s = 191: (0, 82, 67, 34, 63, 67, 107, 69, 46, 36, 26, 0)
s = 192: (0, 56, 26, 74, 78, 39, 94, 126, 29, 48, 30, 0)
s = 193: (0, 88, 54, 47, 60, 51, 117, 167, 36, 37, 34, 0)
s = 194: (0, 38, 31, 51, 69, 75, 221, 108, 34, 42, 38, 0)
s = 195: (0, 69, 67, 28, 36, 31, 103, 111, 44, 36, 45, 0)
s = 196: (0, 113, 26, 41, 72, 45, 141, 54, 50, 45, 54, 0)
s = 197: (0, 55, 36, 61, 74, 44, 95, 75, 27, 53, 48, 0)
s = 198: (0, 68, 34, 53, 52, 74, 97, 120, 34, 45, 36, 0)
s = 199: (0, 34, 35, 57, 56, 85, 90, 84, 71, 60, 59, 0)
s = 200: (0, 64, 53, 30, 46, 80, 91, 113, 31, 37, 40, 0)
------------------------------------------------------------------------
RESOURCE k = 2
s = 1: (0, 84, 0, 0, 18, 0, 38, 38, 27, 0, 21, 0)
s = 2: (0, 70, 0, 0, 13, 0, 25, 26, 37, 0, 18, 0)
s = 3: (0, 50, 0, 0, 11, 0, 24, 32, 33, 0, 21, 0)
s = 4: (0, 42, 0, 0, 17, 0, 42, 48, 26, 0, 23, 0)
s = 5: (0, 64, 0, 0, 17, 0, 42, 24, 32, 0, 27, 0)
s = 6: (0, 69, 0, 0, 16, 0, 34, 36, 21, 0, 18, 0)
s = 7: (0, 42, 0, 0, 15, 0, 24, 47, 29, 0, 20, 0)
s = 8: (0, 53, 0, 0, 11, 0, 31, 38, 34, 0, 21, 0)
s = 9: (0, 51, 0, 0, 12, 0, 27, 35, 22, 0, 25, 0)
s = 10: (0, 57, 0, 0, 18, 0, 39, 59, 23, 0, 22, 0)
s = 11: (0, 44, 0, 0, 16, 0, 34, 27, 32, 0, 19, 0)
s = 12: (0, 53, 0, 0, 20, 0, 39, 43, 24, 0, 28, 0)
s = 13: (0, 43, 0, 0, 14, 0, 47, 28, 22, 0, 18, 0)
s = 14: (0, 66, 0, 0, 15, 0, 66, 41, 29, 0, 19, 0)
s = 15: (0, 36, 0, 0, 19, 0, 24, 40, 44, 0, 26, 0)
s = 16: (0, 50, 0, 0, 16, 0, 36, 44, 26, 0, 27, 0)
s = 17: (0, 54, 0, 0, 13, 0, 40, 75, 33, 0, 17, 0)
s = 18: (0, 58, 0, 0, 16, 0, 25, 26, 31, 0, 19, 0)
s = 19: (0, 38, 0, 0, 16, 0, 38, 63, 34, 0, 28, 0)
s = 20: (0, 61, 0, 0, 22, 0, 33, 56, 47, 0, 17, 0)
s = 21: (0, 43, 0, 0, 12, 0, 32, 31, 24, 0, 21, 0)
s = 22: (0, 34, 0, 0, 16, 0, 31, 29, 24, 0, 13, 0)
s = 23: (0, 79, 0, 0, 14, 0, 72, 48, 39, 0, 24, 0)
s = 24: (0, 39, 0, 0, 24, 0, 51, 38, 39, 0, 23, 0)
s = 25: (0, 50, 0, 0, 15, 0, 55, 39, 20, 0, 26, 0)
s = 26: (0, 58, 0, 0, 18, 0, 47, 41, 21, 0, 13, 0)
s = 27: (0, 78, 0, 0, 12, 0, 35, 28, 19, 0, 34, 0)
s = 28: (0, 63, 0, 0, 12, 0, 36, 37, 22, 0, 26, 0)
s = 29: (0, 77, 0, 0, 20, 0, 32, 50, 20, 0, 23, 0)
s = 30: (0, 49, 0, 0, 10, 0, 64, 46, 21, 0, 30, 0)
s = 31: (0, 78, 0, 0, 14, 0, 36, 42, 35, 0, 16, 0)
s = 32: (0, 46, 0, 0, 18, 0, 44, 31, 19, 0, 21, 0)
s = 33: (0, 59, 0, 0, 20, 0, 38, 66, 28, 0, 15, 0)
s = 34: (0, 32, 0, 0, 12, 0, 53, 46, 26, 0, 16, 0)
s = 35: (0, 56, 0, 0, 19, 0, 24, 47, 34, 0, 17, 0)
s = 36: (0, 79, 0, 0, 13, 0, 33, 33, 32, 0, 14, 0)
s = 37: (0, 43, 0, 0, 15, 0, 44, 40, 23, 0, 23, 0)
s = 38: (0, 33, 0, 0, 15, 0, 47, 36, 34, 0, 20, 0)
s = 39: (0, 96, 0, 0, 16, 0, 30, 71, 28, 0, 15, 0)
s = 40: (0, 42, 0, 0, 23, 0, 57, 48, 37, 0, 25, 0)
s = 41: (0, 50, 0, 0, 16, 0, 38, 51, 31, 0, 24, 0)
s = 42: (0, 66, 0, 0, 13, 0, 57, 55, 30, 0, 21, 0)
s = 43: (0, 68, 0, 0, 20, 0, 43, 57, 25, 0, 22, 0)
s = 44: (0, 46, 0, 0, 20, 0, 58, 39, 26, 0, 18, 0)
s = 45: (0, 59, 0, 0, 23, 0, 32, 36, 17, 0, 26, 0)
s = 46: (0, 49, 0, 0, 11, 0, 50, 40, 17, 0, 31, 0)
s = 47: (0, 86, 0, 0, 10, 0, 47, 43, 24, 0, 16, 0)
s = 48: (0, 36, 0, 0, 16, 0, 45, 29, 16, 0, 19, 0)
s = 49: (0, 63, 0, 0, 14, 0, 52, 43, 20, 0, 20, 0)
s = 50: (0, 100, 0, 0, 10, 0, 35, 39, 23, 0, 34, 0)
s = 51: (0, 73, 0, 0, 17, 0, 45, 37, 40, 0, 20, 0)
s = 52: (0, 48, 0, 0, 12, 0, 48, 42, 24, 0, 25, 0)
s = 53: (0, 46, 0, 0, 16, 0, 24, 47, 39, 0, 19, 0)
s = 54: (0, 61, 0, 0, 12, 0, 33, 32, 19, 0, 13, 0)
s = 55: (0, 75, 0, 0, 15, 0, 40, 36, 19, 0, 33, 0)
s = 56: (0, 94, 0, 0, 14, 0, 23, 33, 20, 0, 18, 0)
s = 57: (0, 68, 0, 0, 19, 0, 40, 46, 24, 0, 20, 0)
s = 58: (0, 82, 0, 0, 13, 0, 36, 36, 36, 0, 28, 0)
s = 59: (0, 42, 0, 0, 13, 0, 55, 44, 23, 0, 16, 0)
s = 60: (0, 95, 0, 0, 17, 0, 30, 29, 22, 0, 25, 0)
s = 61: (0, 45, 0, 0, 17, 0, 35, 63, 19, 0, 16, 0)
s = 62: (0, 61, 0, 0, 17, 0, 69, 48, 46, 0, 19, 0)
s = 63: (0, 44, 0, 0, 14, 0, 35, 35, 44, 0, 27, 0)
s = 64: (0, 47, 0, 0, 13, 0, 32, 39, 20, 0, 27, 0)
s = 65: (0, 38, 0, 0, 15, 0, 31, 31, 18, 0, 14, 0)
s = 66: (0, 43, 0, 0, 15, 0, 49, 28, 15, 0, 24, 0)
s = 67: (0, 61, 0, 0, 15, 0, 36, 43, 31, 0, 16, 0)
s = 68: (0, 52, 0, 0, 15, 0, 33, 27, 36, 0, 14, 0)
s = 69: (0, 68, 0, 0, 16, 0, 50, 50, 21, 0, 33, 0)
s = 70: (0, 38, 0, 0, 16, 0, 57, 41, 31, 0, 22, 0)
s = 71: (0, 55, 0, 0, 20, 0, 48, 28, 19, 0, 23, 0)
s = 72: (0, 46, 0, 0, 15, 0, 37, 31, 21, 0, 24, 0)
s = 73: (0, 47, 0, 0, 23, 0, 54, 60, 41, 0, 39, 0)
s = 74: (0, 43, 0, 0, 14, 0, 44, 55, 25, 0, 21, 0)
s = 75: (0, 48, 0, 0, 13, 0, 24, 39, 28, 0, 12, 0)
s = 76: (0, 65, 0, 0, 11, 0, 45, 35, 41, 0, 26, 0)
s = 77: (0, 52, 0, 0, 12, 0, 45, 50, 26, 0, 13, 0)
s = 78: (0, 54, 0, 0, 26, 0, 65, 35, 16, 0, 26, 0)
s = 79: (0, 48, 0, 0, 23, 0, 24, 68, 17, 0, 19, 0)
s = 80: (0, 58, 0, 0, 19, 0, 30, 61, 18, 0, 15, 0)
s = 81: (0, 42, 0, 0, 16, 0, 43, 46, 19, 0, 25, 0)
s = 82: (0, 53, 0, 0, 13, 0, 39, 36, 28, 0, 18, 0)
s = 83: (0, 56, 0, 0, 10, 0, 51, 63, 24, 0, 17, 0)
s = 84: (0, 45, 0, 0, 23, 0, 48, 53, 24, 0, 19, 0)
s = 85: (0, 97, 0, 0, 14, 0, 33, 47, 37, 0, 27, 0)
s = 86: (0, 50, 0, 0, 13, 0, 27, 36, 38, 0, 24, 0)
s = 87: (0, 42, 0, 0, 14, 0, 26, 27, 26, 0, 24, 0)
s = 88: (0, 47, 0, 0, 9, 0, 22, 33, 25, 0, 14, 0)
s = 89: (0, 57, 0, 0, 15, 0, 39, 35, 16, 0, 40, 0)
s = 90: (0, 61, 0, 0, 11, 0, 38, 40, 35, 0, 16, 0)
s = 91: (0, 42, 0, 0, 11, 0, 35, 47, 30, 0, 15, 0)
s = 92: (0, 54, 0, 0, 16, 0, 23, 52, 25, 0, 28, 0)
s = 93: (0, 44, 0, 0, 14, 0, 40, 61, 23, 0, 25, 0)
s = 94: (0, 74, 0, 0, 20, 0, 42, 31, 15, 0, 25, 0)
s = 95: (0, 42, 0, 0, 23, 0, 52, 42, 39, 0, 30, 0)
s = 96: (0, 43, 0, 0, 25, 0, 44, 47, 32, 0, 12, 0)
s = 97: (0, 50, 0, 0, 21, 0, 30, 37, 34, 0, 20, 0)
s = 98: (0, 89, 0, 0, 14, 0, 44, 26, 38, 0, 20, 0)
s = 99: (0, 40, 0, 0, 11, 0, 40, 26, 20, 0, 29, 0)
s = 100: (0, 39, 0, 0, 10, 0, 24, 31, 34, 0, 21, 0)
s = 101: (0, 84, 0, 0, 25, 0, 30, 42, 26, 0, 19, 0)
s = 102: (0, 71, 0, 0, 29, 0, 30, 38, 20, 0, 25, 0)
s = 103: (0, 37, 0, 0, 22, 0, 38, 75, 33, 0, 16, 0)
s = 104: (0, 50, 0, 0, 22, 0, 43, 68, 35, 0, 23, 0)
s = 105: (0, 49, 0, 0, 14, 0, 68, 35, 35, 0, 14, 0)
s = 106: (0, 48, 0, 0, 21, 0, 62, 41, 37, 0, 19, 0)
s = 107: (0, 86, 0, 0, 23, 0, 58, 45, 24, 0, 25, 0)
s = 108: (0, 75, 0, 0, 17, 0, 59, 57, 34, 0, 18, 0)
s = 109: (0, 48, 0, 0, 17, 0, 55, 57, 36, 0, 22, 0)
s = 110: (0, 50, 0, 0, 13, 0, 35, 30, 34, 0, 21, 0)
s = 111: (0, 36, 0, 0, 20, 0, 25, 47, 30, 0, 21, 0)
s = 112: (0, 61, 0, 0, 11, 0, 39, 70, 32, 0, 26, 0)
s = 113: (0, 66, 0, 0, 27, 0, 44, 29, 17, 0, 30, 0)
s = 114: (0, 35, 0, 0, 17, 0, 39, 42, 33, 0, 34, 0)
s = 115: (0, 54, 0, 0, 12, 0, 65, 54, 29, 0, 32, 0)
s = 116: (0, 46, 0, 0, 20, 0, 44, 56, 23, 0, 27, 0)
s = 117: (0, 62, 0, 0, 17, 0, 34, 44, 35, 0, 18, 0)
s = 118: (0, 63, 0, 0, 23, 0, 36, 35, 21, 0, 34, 0)
s = 119: (0, 40, 0, 0, 19, 0, 43, 66, 29, 0, 23, 0)
s = 120: (0, 59, 0, 0, 21, 0, 57, 40, 21, 0, 23, 0)
s = 121: (0, 67, 0, 0, 15, 0, 39, 30, 27, 0, 21, 0)
s = 122: (0, 68, 0, 0, 14, 0, 38, 33, 18, 0, 28, 0)
s = 123: (0, 60, 0, 0, 10, 0, 36, 39, 29, 0, 31, 0)
s = 124: (0, 32, 0, 0, 15, 0, 49, 39, 28, 0, 19, 0)
s = 125: (0, 45, 0, 0, 12, 0, 31, 28, 33, 0, 25, 0)
s = 126: (0, 39, 0, 0, 19, 0, 32, 40, 16, 0, 13, 0)
s = 127: (0, 32, 0, 0, 21, 0, 26, 40, 17, 0, 24, 0)
s = 128: (0, 46, 0, 0, 20, 0, 36, 29, 25, 0, 26, 0)
s = 129: (0, 66, 0, 0, 13, 0, 33, 52, 17, 0, 17, 0)
s = 130: (0, 46, 0, 0, 18, 0, 29, 35, 42, 0, 22, 0)
s = 131: (0, 42, 0, 0, 19, 0, 44, 39, 21, 0, 23, 0)
s = 132: (0, 69, 0, 0, 22, 0, 27, 51, 27, 0, 28, 0)
s = 133: (0, 43, 0, 0, 22, 0, 34, 38, 26, 0, 36, 0)
s = 134: (0, 98, 0, 0, 20, 0, 33, 39, 25, 0, 21, 0)
s = 135: (0, 36, 0, 0, 10, 0, 24, 30, 24, 0, 21, 0)
s = 136: (0, 67, 0, 0, 11, 0, 29, 37, 22, 0, 19, 0)
s = 137: (0, 77, 0, 0, 16, 0, 33, 36, 16, 0, 23, 0)
s = 138: (0, 44, 0, 0, 18, 0, 31, 26, 26, 0, 28, 0)
s = 139: (0, 65, 0, 0, 16, 0, 56, 29, 24, 0, 24, 0)
s = 140: (0, 41, 0, 0, 21, 0, 54, 53, 18, 0, 21, 0)
s = 141: (0, 71, 0, 0, 16, 0, 45, 39, 31, 0, 16, 0)
s = 142: (0, 36, 0, 0, 16, 0, 25, 43, 38, 0, 21, 0)
s = 143: (0, 65, 0, 0, 14, 0, 64, 43, 34, 0, 18, 0)
s = 144: (0, 33, 0, 0, 11, 0, 51, 49, 16, 0, 13, 0)
s = 145: (0, 49, 0, 0, 14, 0, 40, 44, 28, 0, 11, 0)
s = 146: (0, 61, 0, 0, 20, 0, 41, 42, 35, 0, 26, 0)
s = 147: (0, 83, 0, 0, 11, 0, 60, 43, 20, 0, 19, 0)
s = 148: (0, 45, 0, 0, 13, 0, 58, 55, 33, 0, 21, 0)
s = 149: (0, 70, 0, 0, 14, 0, 36, 33, 29, 0, 18, 0)
s = 150: (0, 56, 0, 0, 17, 0, 36, 38, 26, 0, 20, 0)
s = 151: (0, 81, 0, 0, 11, 0, 28, 28, 35, 0, 18, 0)
s = 152: (0, 39, 0, 0, 11, 0, 48, 40, 33, 0, 30, 0)
s = 153: (0, 70, 0, 0, 15, 0, 44, 49, 19, 0, 16, 0)
s = 154: (0, 55, 0, 0, 12, 0, 56, 26, 28, 0, 24, 0)
s = 155: (0, 69, 0, 0, 19, 0, 45, 30, 18, 0, 17, 0)
s = 156: (0, 52, 0, 0, 18, 0, 43, 37, 36, 0, 31, 0)
s = 157: (0, 34, 0, 0, 16, 0, 41, 42, 20, 0, 13, 0)
s = 158: (0, 78, 0, 0, 22, 0, 34, 40, 35, 0, 28, 0)
s = 159: (0, 43, 0, 0, 20, 0, 32, 28, 20, 0, 28, 0)
s = 160: (0, 37, 0, 0, 10, 0, 47, 30, 32, 0, 34, 0)
s = 161: (0, 52, 0, 0, 22, 0, 30, 31, 25, 0, 22, 0)
s = 162: (0, 81, 0, 0, 18, 0, 51, 49, 24, 0, 20, 0)
s = 163: (0, 51, 0, 0, 19, 0, 29, 47, 37, 0, 18, 0)
s = 164: (0, 85, 0, 0, 13, 0, 55, 41, 26, 0, 16, 0)
s = 165: (0, 33, 0, 0, 12, 0, 37, 63, 21, 0, 19, 0)
s = 166: (0, 75, 0, 0, 14, 0, 28, 62, 28, 0, 14, 0)
s = 167: (0, 39, 0, 0, 20, 0, 37, 56, 46, 0, 28, 0)
s = 168: (0, 61, 0, 0, 14, 0, 61, 41, 22, 0, 15, 0)
s = 169: (0, 59, 0, 0, 17, 0, 22, 53, 27, 0, 20, 0)
s = 170: (0, 37, 0, 0, 10, 0, 54, 35, 24, 0, 19, 0)
s = 171: (0, 38, 0, 0, 13, 0, 55, 48, 26, 0, 20, 0)
s = 172: (0, 42, 0, 0, 14, 0, 33, 34, 29, 0, 17, 0)
s = 173: (0, 55, 0, 0, 13, 0, 39, 61, 30, 0, 20, 0)
s = 174: (0, 44, 0, 0, 13, 0, 37, 44, 43, 0, 21, 0)
s = 175: (0, 57, 0, 0, 19, 0, 43, 34, 25, 0, 15, 0)
s = 176: (0, 60, 0, 0, 17, 0, 38, 29, 28, 0, 17, 0)
s = 177: (0, 45, 0, 0, 17, 0, 36, 26, 16, 0, 17, 0)
s = 178: (0, 44, 0, 0, 20, 0, 55, 27, 28, 0, 20, 0)
s = 179: (0, 42, 0, 0, 22, 0, 40, 49, 18, 0, 22, 0)
s = 180: (0, 72, 0, 0, 21, 0, 32, 34, 34, 0, 26, 0)
s = 181: (0, 63, 0, 0, 18, 0, 37, 51, 21, 0, 16, 0)
s = 182: (0, 80, 0, 0, 11, 0, 43, 37, 22, 0, 22, 0)
s = 183: (0, 60, 0, 0, 26, 0, 35, 59, 20, 0, 20, 0)
s = 184: (0, 66, 0, 0, 19, 0, 34, 49, 27, 0, 29, 0)
s = 185: (0, 44, 0, 0, 23, 0, 39, 23, 29, 0, 19, 0)
s = 186: (0, 41, 0, 0, 18, 0, 36, 44, 27, 0, 26, 0)
s = 187: (0, 45, 0, 0, 10, 0, 43, 50, 28, 0, 20, 0)
s = 188: (0, 65, 0, 0, 22, 0, 22, 50, 18, 0, 34, 0)
s = 189: (0, 66, 0, 0, 15, 0, 42, 44, 25, 0, 20, 0)
s = 190: (0, 85, 0, 0, 14, 0, 27, 50, 33, 0, 30, 0)
s = 191: (0, 73, 0, 0, 17, 0, 34, 31, 32, 0, 13, 0)
s = 192: (0, 50, 0, 0, 21, 0, 30, 56, 20, 0, 15, 0)
s = 193: (0, 78, 0, 0, 16, 0, 37, 73, 25, 0, 17, 0)
s = 194: (0, 34, 0, 0, 19, 0, 69, 48, 24, 0, 19, 0)
s = 195: (0, 61, 0, 0, 10, 0, 33, 49, 31, 0, 23, 0)
s = 196: (0, 101, 0, 0, 19, 0, 44, 24, 35, 0, 27, 0)
s = 197: (0, 49, 0, 0, 20, 0, 30, 33, 19, 0, 24, 0)
s = 198: (0, 60, 0, 0, 14, 0, 31, 53, 24, 0, 18, 0)
s = 199: (0, 31, 0, 0, 15, 0, 29, 37, 49, 0, 30, 0)
s = 200: (0, 57, 0, 0, 13, 0, 29, 50, 22, 0, 20, 0)
------------------------------------------------------------------------
RESOURCE k = 3
s = 1: (0, 0, 31, 24, 0, 23, 0, 0, 0, 5, 0, 0)
s = 2: (0, 0, 17, 49, 0, 44, 0, 0, 0, 7, 0, 0)
s = 3: (0, 0, 34, 22, 0, 57, 0, 0, 0, 6, 0, 0)
s = 4: (0, 0, 13, 35, 0, 41, 0, 0, 0, 11, 0, 0)
s = 5: (0, 0, 26, 38, 0, 40, 0, 0, 0, 8, 0, 0)
s = 6: (0, 0, 17, 25, 0, 37, 0, 0, 0, 5, 0, 0)
s = 7: (0, 0, 23, 29, 0, 43, 0, 0, 0, 4, 0, 0)
s = 8: (0, 0, 18, 30, 0, 28, 0, 0, 0, 6, 0, 0)
s = 9: (0, 0, 35, 20, 0, 40, 0, 0, 0, 6, 0, 0)
s = 10: (0, 0, 26, 20, 0, 34, 0, 0, 0, 6, 0, 0)
s = 11: (0, 0, 22, 36, 0, 41, 0, 0, 0, 5, 0, 0)
s = 12: (0, 0, 34, 25, 0, 23, 0, 0, 0, 6, 0, 0)
s = 13: (0, 0, 35, 20, 0, 30, 0, 0, 0, 5, 0, 0)
s = 14: (0, 0, 22, 23, 0, 61, 0, 0, 0, 5, 0, 0)
s = 15: (0, 0, 31, 17, 0, 32, 0, 0, 0, 7, 0, 0)
s = 16: (0, 0, 25, 17, 0, 31, 0, 0, 0, 6, 0, 0)
s = 17: (0, 0, 23, 30, 0, 23, 0, 0, 0, 4, 0, 0)
s = 18: (0, 0, 24, 32, 0, 47, 0, 0, 0, 5, 0, 0)
s = 19: (0, 0, 25, 26, 0, 28, 0, 0, 0, 8, 0, 0)
s = 20: (0, 0, 18, 24, 0, 22, 0, 0, 0, 6, 0, 0)
s = 21: (0, 0, 30, 44, 0, 48, 0, 0, 0, 5, 0, 0)
s = 22: (0, 0, 30, 34, 0, 54, 0, 0, 0, 9, 0, 0)
s = 23: (0, 0, 14, 29, 0, 44, 0, 0, 0, 7, 0, 0)
s = 24: (0, 0, 27, 29, 0, 42, 0, 0, 0, 5, 0, 0)
s = 25: (0, 0, 38, 18, 0, 47, 0, 0, 0, 8, 0, 0)
s = 26: (0, 0, 19, 18, 0, 59, 0, 0, 0, 8, 0, 0)
s = 27: (0, 0, 31, 26, 0, 39, 0, 0, 0, 8, 0, 0)
s = 28: (0, 0, 24, 19, 0, 43, 0, 0, 0, 6, 0, 0)
s = 29: (0, 0, 18, 35, 0, 42, 0, 0, 0, 10, 0, 0)
s = 30: (0, 0, 32, 23, 0, 30, 0, 0, 0, 6, 0, 0)
s = 31: (0, 0, 22, 27, 0, 42, 0, 0, 0, 8, 0, 0)
s = 32: (0, 0, 22, 23, 0, 25, 0, 0, 0, 4, 0, 0)
s = 33: (0, 0, 28, 29, 0, 22, 0, 0, 0, 8, 0, 0)
s = 34: (0, 0, 26, 40, 0, 27, 0, 0, 0, 5, 0, 0)
s = 35: (0, 0, 32, 26, 0, 25, 0, 0, 0, 5, 0, 0)
s = 36: (0, 0, 32, 18, 0, 21, 0, 0, 0, 7, 0, 0)
s = 37: (0, 0, 22, 29, 0, 26, 0, 0, 0, 9, 0, 0)
s = 38: (0, 0, 21, 18, 0, 21, 0, 0, 0, 6, 0, 0)
s = 39: (0, 0, 24, 33, 0, 32, 0, 0, 0, 6, 0, 0)
s = 40: (0, 0, 26, 29, 0, 48, 0, 0, 0, 6, 0, 0)
s = 41: (0, 0, 17, 20, 0, 42, 0, 0, 0, 8, 0, 0)
s = 42: (0, 0, 19, 29, 0, 25, 0, 0, 0, 6, 0, 0)
s = 43: (0, 0, 19, 31, 0, 41, 0, 0, 0, 7, 0, 0)
s = 44: (0, 0, 26, 18, 0, 45, 0, 0, 0, 8, 0, 0)
s = 45: (0, 0, 15, 29, 0, 34, 0, 0, 0, 5, 0, 0)
s = 46: (0, 0, 25, 45, 0, 29, 0, 0, 0, 6, 0, 0)
s = 47: (0, 0, 33, 18, 0, 37, 0, 0, 0, 6, 0, 0)
s = 48: (0, 0, 28, 33, 0, 23, 0, 0, 0, 7, 0, 0)
s = 49: (0, 0, 20, 32, 0, 31, 0, 0, 0, 5, 0, 0)
s = 50: (0, 0, 25, 21, 0, 47, 0, 0, 0, 4, 0, 0)
s = 51: (0, 0, 23, 27, 0, 65, 0, 0, 0, 4, 0, 0)
s = 52: (0, 0, 19, 22, 0, 29, 0, 0, 0, 5, 0, 0)
s = 53: (0, 0, 23, 43, 0, 61, 0, 0, 0, 9, 0, 0)
s = 54: (0, 0, 23, 25, 0, 51, 0, 0, 0, 9, 0, 0)
s = 55: (0, 0, 22, 23, 0, 58, 0, 0, 0, 11, 0, 0)
s = 56: (0, 0, 33, 35, 0, 40, 0, 0, 0, 6, 0, 0)
s = 57: (0, 0, 21, 48, 0, 42, 0, 0, 0, 5, 0, 0)
s = 58: (0, 0, 14, 36, 0, 28, 0, 0, 0, 6, 0, 0)
s = 59: (0, 0, 36, 29, 0, 28, 0, 0, 0, 6, 0, 0)
s = 60: (0, 0, 39, 30, 0, 37, 0, 0, 0, 7, 0, 0)
s = 61: (0, 0, 18, 33, 0, 20, 0, 0, 0, 7, 0, 0)
s = 62: (0, 0, 21, 25, 0, 27, 0, 0, 0, 5, 0, 0)
s = 63: (0, 0, 18, 35, 0, 31, 0, 0, 0, 7, 0, 0)
s = 64: (0, 0, 21, 27, 0, 35, 0, 0, 0, 5, 0, 0)
s = 65: (0, 0, 27, 20, 0, 28, 0, 0, 0, 7, 0, 0)
s = 66: (0, 0, 19, 35, 0, 43, 0, 0, 0, 5, 0, 0)
s = 67: (0, 0, 17, 36, 0, 35, 0, 0, 0, 9, 0, 0)
s = 68: (0, 0, 23, 19, 0, 23, 0, 0, 0, 7, 0, 0)
s = 69: (0, 0, 13, 21, 0, 61, 0, 0, 0, 4, 0, 0)
s = 70: (0, 0, 15, 20, 0, 36, 0, 0, 0, 5, 0, 0)
s = 71: (0, 0, 31, 21, 0, 32, 0, 0, 0, 4, 0, 0)
s = 72: (0, 0, 14, 45, 0, 32, 0, 0, 0, 7, 0, 0)
s = 73: (0, 0, 18, 27, 0, 34, 0, 0, 0, 8, 0, 0)
s = 74: (0, 0, 21, 20, 0, 57, 0, 0, 0, 8, 0, 0)
s = 75: (0, 0, 18, 47, 0, 39, 0, 0, 0, 8, 0, 0)
s = 76: (0, 0, 19, 52, 0, 26, 0, 0, 0, 8, 0, 0)
s = 77: (0, 0, 22, 26, 0, 52, 0, 0, 0, 6, 0, 0)
s = 78: (0, 0, 23, 27, 0, 28, 0, 0, 0, 9, 0, 0)
s = 79: (0, 0, 24, 34, 0, 39, 0, 0, 0, 7, 0, 0)
s = 80: (0, 0, 24, 41, 0, 32, 0, 0, 0, 10, 0, 0)
s = 81: (0, 0, 33, 38, 0, 42, 0, 0, 0, 10, 0, 0)
s = 82: (0, 0, 26, 39, 0, 34, 0, 0, 0, 8, 0, 0)
s = 83: (0, 0, 19, 26, 0, 21, 0, 0, 0, 9, 0, 0)
s = 84: (0, 0, 24, 22, 0, 32, 0, 0, 0, 5, 0, 0)
s = 85: (0, 0, 30, 24, 0, 27, 0, 0, 0, 8, 0, 0)
s = 86: (0, 0, 21, 28, 0, 35, 0, 0, 0, 6, 0, 0)
s = 87: (0, 0, 18, 24, 0, 31, 0, 0, 0, 9, 0, 0)
s = 88: (0, 0, 24, 30, 0, 23, 0, 0, 0, 8, 0, 0)
s = 89: (0, 0, 18, 29, 0, 52, 0, 0, 0, 5, 0, 0)
s = 90: (0, 0, 16, 33, 0, 32, 0, 0, 0, 11, 0, 0)
s = 91: (0, 0, 19, 21, 0, 35, 0, 0, 0, 5, 0, 0)
s = 92: (0, 0, 17, 38, 0, 50, 0, 0, 0, 6, 0, 0)
s = 93: (0, 0, 27, 26, 0, 43, 0, 0, 0, 5, 0, 0)
s = 94: (0, 0, 24, 23, 0, 29, 0, 0, 0, 4, 0, 0)
s = 95: (0, 0, 28, 38, 0, 30, 0, 0, 0, 4, 0, 0)
s = 96: (0, 0, 34, 29, 0, 46, 0, 0, 0, 4, 0, 0)
s = 97: (0, 0, 24, 20, 0, 31, 0, 0, 0, 7, 0, 0)
s = 98: (0, 0, 19, 33, 0, 41, 0, 0, 0, 8, 0, 0)
s = 99: (0, 0, 44, 33, 0, 27, 0, 0, 0, 5, 0, 0)
s = 100: (0, 0, 28, 25, 0, 47, 0, 0, 0, 6, 0, 0)
s = 101: (0, 0, 42, 30, 0, 35, 0, 0, 0, 5, 0, 0)
s = 102: (0, 0, 24, 26, 0, 53, 0, 0, 0, 6, 0, 0)
s = 103: (0, 0, 25, 28, 0, 32, 0, 0, 0, 8, 0, 0)
s = 104: (0, 0, 17, 20, 0, 38, 0, 0, 0, 5, 0, 0)
s = 105: (0, 0, 23, 28, 0, 33, 0, 0, 0, 4, 0, 0)
s = 106: (0, 0, 22, 31, 0, 26, 0, 0, 0, 7, 0, 0)
s = 107: (0, 0, 28, 21, 0, 24, 0, 0, 0, 8, 0, 0)
s = 108: (0, 0, 33, 36, 0, 35, 0, 0, 0, 7, 0, 0)
s = 109: (0, 0, 18, 23, 0, 50, 0, 0, 0, 6, 0, 0)
s = 110: (0, 0, 15, 36, 0, 44, 0, 0, 0, 6, 0, 0)
s = 111: (0, 0, 41, 28, 0, 47, 0, 0, 0, 5, 0, 0)
s = 112: (0, 0, 42, 34, 0, 34, 0, 0, 0, 6, 0, 0)
s = 113: (0, 0, 38, 26, 0, 39, 0, 0, 0, 5, 0, 0)
s = 114: (0, 0, 34, 39, 0, 25, 0, 0, 0, 9, 0, 0)
s = 115: (0, 0, 18, 27, 0, 34, 0, 0, 0, 4, 0, 0)
s = 116: (0, 0, 24, 26, 0, 54, 0, 0, 0, 6, 0, 0)
s = 117: (0, 0, 26, 42, 0, 52, 0, 0, 0, 9, 0, 0)
s = 118: (0, 0, 24, 27, 0, 35, 0, 0, 0, 8, 0, 0)
s = 119: (0, 0, 27, 18, 0, 28, 0, 0, 0, 5, 0, 0)
s = 120: (0, 0, 28, 51, 0, 48, 0, 0, 0, 11, 0, 0)
s = 121: (0, 0, 39, 22, 0, 48, 0, 0, 0, 7, 0, 0)
s = 122: (0, 0, 23, 35, 0, 40, 0, 0, 0, 6, 0, 0)
s = 123: (0, 0, 19, 36, 0, 32, 0, 0, 0, 4, 0, 0)
s = 124: (0, 0, 24, 20, 0, 32, 0, 0, 0, 6, 0, 0)
s = 125: (0, 0, 31, 26, 0, 33, 0, 0, 0, 6, 0, 0)
s = 126: (0, 0, 25, 25, 0, 33, 0, 0, 0, 4, 0, 0)
s = 127: (0, 0, 19, 23, 0, 30, 0, 0, 0, 10, 0, 0)
s = 128: (0, 0, 34, 26, 0, 25, 0, 0, 0, 6, 0, 0)
s = 129: (0, 0, 27, 23, 0, 42, 0, 0, 0, 5, 0, 0)
s = 130: (0, 0, 25, 22, 0, 43, 0, 0, 0, 4, 0, 0)
s = 131: (0, 0, 32, 25, 0, 28, 0, 0, 0, 8, 0, 0)
s = 132: (0, 0, 22, 36, 0, 38, 0, 0, 0, 7, 0, 0)
s = 133: (0, 0, 29, 34, 0, 25, 0, 0, 0, 6, 0, 0)
s = 134: (0, 0, 17, 50, 0, 50, 0, 0, 0, 6, 0, 0)
s = 135: (0, 0, 29, 34, 0, 19, 0, 0, 0, 8, 0, 0)
s = 136: (0, 0, 21, 36, 0, 41, 0, 0, 0, 4, 0, 0)
s = 137: (0, 0, 38, 40, 0, 36, 0, 0, 0, 6, 0, 0)
s = 138: (0, 0, 26, 17, 0, 36, 0, 0, 0, 7, 0, 0)
s = 139: (0, 0, 40, 20, 0, 33, 0, 0, 0, 7, 0, 0)
s = 140: (0, 0, 40, 33, 0, 26, 0, 0, 0, 5, 0, 0)
s = 141: (0, 0, 18, 28, 0, 55, 0, 0, 0, 4, 0, 0)
s = 142: (0, 0, 20, 34, 0, 54, 0, 0, 0, 7, 0, 0)
s = 143: (0, 0, 24, 20, 0, 27, 0, 0, 0, 5, 0, 0)
s = 144: (0, 0, 27, 30, 0, 32, 0, 0, 0, 8, 0, 0)
s = 145: (0, 0, 30, 16, 0, 29, 0, 0, 0, 5, 0, 0)
s = 146: (0, 0, 27, 29, 0, 23, 0, 0, 0, 9, 0, 0)
s = 147: (0, 0, 27, 25, 0, 38, 0, 0, 0, 4, 0, 0)
s = 148: (0, 0, 37, 21, 0, 33, 0, 0, 0, 5, 0, 0)
s = 149: (0, 0, 18, 28, 0, 44, 0, 0, 0, 5, 0, 0)
s = 150: (0, 0, 14, 31, 0, 20, 0, 0, 0, 8, 0, 0)
s = 151: (0, 0, 29, 20, 0, 54, 0, 0, 0, 6, 0, 0)
s = 152: (0, 0, 29, 27, 0, 36, 0, 0, 0, 7, 0, 0)
s = 153: (0, 0, 20, 41, 0, 55, 0, 0, 0, 7, 0, 0)
s = 154: (0, 0, 19, 27, 0, 26, 0, 0, 0, 4, 0, 0)
s = 155: (0, 0, 31, 29, 0, 31, 0, 0, 0, 7, 0, 0)
s = 156: (0, 0, 40, 29, 0, 43, 0, 0, 0, 6, 0, 0)
s = 157: (0, 0, 33, 38, 0, 45, 0, 0, 0, 7, 0, 0)
s = 158: (0, 0, 25, 28, 0, 34, 0, 0, 0, 4, 0, 0)
s = 159: (0, 0, 30, 32, 0, 44, 0, 0, 0, 4, 0, 0)
s = 160: (0, 0, 17, 38, 0, 40, 0, 0, 0, 5, 0, 0)
s = 161: (0, 0, 20, 35, 0, 39, 0, 0, 0, 7, 0, 0)
s = 162: (0, 0, 25, 44, 0, 27, 0, 0, 0, 5, 0, 0)
s = 163: (0, 0, 19, 21, 0, 29, 0, 0, 0, 6, 0, 0)
s = 164: (0, 0, 24, 15, 0, 22, 0, 0, 0, 5, 0, 0)
s = 165: (0, 0, 29, 23, 0, 22, 0, 0, 0, 5, 0, 0)
s = 166: (0, 0, 20, 20, 0, 41, 0, 0, 0, 4, 0, 0)
s = 167: (0, 0, 37, 20, 0, 31, 0, 0, 0, 4, 0, 0)
s = 168: (0, 0, 17, 30, 0, 33, 0, 0, 0, 4, 0, 0)
s = 169: (0, 0, 26, 33, 0, 24, 0, 0, 0, 6, 0, 0)
s = 170: (0, 0, 16, 21, 0, 53, 0, 0, 0, 7, 0, 0)
s = 171: (0, 0, 23, 35, 0, 36, 0, 0, 0, 6, 0, 0)
s = 172: (0, 0, 16, 17, 0, 53, 0, 0, 0, 7, 0, 0)
s = 173: (0, 0, 21, 26, 0, 45, 0, 0, 0, 7, 0, 0)
s = 174: (0, 0, 35, 29, 0, 40, 0, 0, 0, 8, 0, 0)
s = 175: (0, 0, 31, 21, 0, 38, 0, 0, 0, 6, 0, 0)
s = 176: (0, 0, 17, 26, 0, 60, 0, 0, 0, 7, 0, 0)
s = 177: (0, 0, 38, 36, 0, 37, 0, 0, 0, 4, 0, 0)
s = 178: (0, 0, 19, 42, 0, 24, 0, 0, 0, 8, 0, 0)
s = 179: (0, 0, 30, 20, 0, 27, 0, 0, 0, 4, 0, 0)
s = 180: (0, 0, 29, 33, 0, 26, 0, 0, 0, 6, 0, 0)
s = 181: (0, 0, 17, 26, 0, 26, 0, 0, 0, 9, 0, 0)
s = 182: (0, 0, 26, 35, 0, 32, 0, 0, 0, 7, 0, 0)
s = 183: (0, 0, 41, 42, 0, 36, 0, 0, 0, 10, 0, 0)
s = 184: (0, 0, 27, 24, 0, 50, 0, 0, 0, 7, 0, 0)
s = 185: (0, 0, 31, 31, 0, 50, 0, 0, 0, 4, 0, 0)
s = 186: (0, 0, 23, 22, 0, 48, 0, 0, 0, 7, 0, 0)
s = 187: (0, 0, 26, 35, 0, 32, 0, 0, 0, 9, 0, 0)
s = 188: (0, 0, 15, 42, 0, 50, 0, 0, 0, 4, 0, 0)
s = 189: (0, 0, 21, 21, 0, 37, 0, 0, 0, 9, 0, 0)
s = 190: (0, 0, 28, 25, 0, 24, 0, 0, 0, 7, 0, 0)
s = 191: (0, 0, 38, 20, 0, 43, 0, 0, 0, 6, 0, 0)
s = 192: (0, 0, 15, 43, 0, 26, 0, 0, 0, 8, 0, 0)
s = 193: (0, 0, 31, 28, 0, 33, 0, 0, 0, 6, 0, 0)
s = 194: (0, 0, 18, 30, 0, 48, 0, 0, 0, 7, 0, 0)
s = 195: (0, 0, 38, 16, 0, 20, 0, 0, 0, 6, 0, 0)
s = 196: (0, 0, 15, 24, 0, 29, 0, 0, 0, 7, 0, 0)
s = 197: (0, 0, 21, 36, 0, 28, 0, 0, 0, 8, 0, 0)
s = 198: (0, 0, 20, 31, 0, 48, 0, 0, 0, 7, 0, 0)
s = 199: (0, 0, 20, 33, 0, 55, 0, 0, 0, 9, 0, 0)
s = 200: (0, 0, 30, 17, 0, 52, 0, 0, 0, 6, 0, 0)
************************************************************************
ES/LS-VALUES:
jobnr.   ES(i)    LS(i)
------------------------------------------------------------------------
  0        0        0
  1        0       78
  2        0       59
  3        0       73
  4        7       83
  5        7       81
  6        5       65
  7       19       80
  8       19       89
  9       29       91
 10       19       89
 11       32       95
************************************************************************
BIG-M-VALUES:
M1 = 62, M2 = 352
************************************************************************
